(set-info :source |printed by MathSAT|)
(declare-fun b () Bool)
(declare-fun c () Bool)
(declare-fun flby () Bool)
(declare-fun flby2 () Bool)
(declare-fun flby3 () Bool)
(declare-fun a () Bool)
(declare-fun _OK_ () Bool)
(define-fun .def_113 () Bool (not flby3))
(define-fun .def_111 () Bool (not flby2))
(define-fun .def_112 () Bool (and flby .def_111))
(define-fun .def_114 () Bool (and .def_112 .def_113))
(define-fun .def_109 () Bool (= c flby3))
(define-fun .def_106 () Bool (= b flby2))
(define-fun .def_103 () Bool (= a flby))
(define-fun .def_92 () Bool (not a))
(define-fun .def_88 () Bool (not b))
(define-fun .def_95 () Bool (or .def_88 .def_92))
(define-fun .def_96 () Bool (or c .def_95))
(define-fun .def_93 () Bool (and b .def_92))
(define-fun .def_90 () Bool (not c))
(define-fun .def_94 () Bool (and .def_90 .def_93))
(define-fun .def_97 () Bool (or .def_94 .def_96))
(define-fun .def_89 () Bool (and a .def_88))
(define-fun .def_91 () Bool (and .def_89 .def_90))
(define-fun .def_98 () Bool (or .def_91 .def_97))
(define-fun .def_84 () Bool (and a b))
(define-fun .def_86 () Bool (and .def_84 c))
(define-fun .def_99 () Bool (or .def_86 .def_98))
(define-fun .def_87 () Bool (not .def_86))
(define-fun .def_100 () Bool (and .def_87 .def_99))
(define-fun .def_101 () Bool (= _OK_ .def_100))
(define-fun .def_104 () Bool (and .def_101 .def_103))
(define-fun .def_107 () Bool (and .def_104 .def_106))
(define-fun .def_110 () Bool (and .def_107 .def_109))
(define-fun .def_115 () Bool (and .def_110 .def_114))
(assert .def_115)
